Route #1: 1 1 20 39 35 27 31 25 1 
Route #2: 1 12 3 33 15 28 17 5 1 
Route #3: 1 43 2 36 14 24 26 13 32 40 1 
Route #4: 1 41 37 34 21 18 16 7 1 
Route #5: 1 19 29 6 4 8 22 30 11 1 
Route #6: 1 9 23 10 1 
Route #7: 1 38 42 1 

Cost 1084.86
Time 0.3057


 * Another infos *

 Iterations: 44 Time: 0.3057 sec - 0.0051 min - 0.0001 horas
0.0000 h 0.0051 min
Problem dimension: 44
